p cnf 37 115
-2 3 -4 0
2 -3 -4 0
-2 -3 4 0
2 3 4 0
-6 4 0
-6 5 0
-4 -5 6 0
-7 1 0
-7 -6 0
-1 6 7 0
-10 8 0
-10 9 0
-8 -9 10 0
-11 5 0
-11 -10 0
-5 10 11 0
-13 -5 0
-13 -12 0
5 12 13 0
9 -13 -14 0
-9 13 -14 0
9 13 14 0
-9 -13 14 0
15 -8 0
15 8 0
15 16 0
-15 16 0
14 -16 -17 0
-14 16 -17 0
14 16 17 0
-14 -16 17 0
-11 17 -18 0
11 -17 -18 0
-11 -17 18 0
11 17 18 0
-19 -7 0
-19 18 0
7 -18 19 0
-20 -4 0
-20 -13 0
4 13 20 0
21 22 0
-21 22 0
-23 -3 -24 0
23 3 -24 0
-23 3 24 0
23 -3 24 0
-22 -24 -25 0
22 24 -25 0
-22 24 25 0
22 -24 25 0
-27 -9 0
-27 -26 0
9 26 27 0
-28 8 0
-28 26 0
-8 -26 28 0
-29 -27 0
-29 28 0
27 -28 29 0
-30 25 0
-30 -29 0
-25 29 30 0
20 30 -31 0
-20 -30 -31 0
20 -30 31 0
-20 30 31 0
32 -10 0
32 9 0
10 -9 -32 0
-33 6 0
-33 32 0
-6 -32 33 0
-34 5 0
-34 10 0
-5 -10 34 0
-33 34 -35 0
33 -34 -35 0
-33 -34 35 0
33 34 35 0
-31 35 -36 0
31 -35 -36 0
-31 -35 36 0
31 35 36 0
-19 36 -37 0
19 -36 -37 0
-19 -36 37 0
19 36 37 0
10 11 0
-1 -25 14 4 -26 -2 0
-35 -20 33 0
-19 2 -6 -22 -3 0
33 -20 0
-31 4 -32 3 0
8 32 1 -25 16 -35 0
-30 -4 18 -3 25 0
-21 -14 18 0
-3 -22 1 -31 19 -30 0
-11 31 37 -12 32 0
14 8 0
-2 16 -37 0
5 11 -25 -7 0
-1 10 0
-22 -28 -33 0
8 -32 -34 4 0
-37 8 0
-22 15 0
31 -6 -4 37 36 0
-3 -18 27 0
-24 -35 0
-12 -6 5 15 0
-35 23 -22 0
-15 -29 -7 -33 -2 0
-22 25 -2 32 1 0
37 0
